p edge 2104 2064
e 1 2
e 1 3
e 1 4
e 1 5
e 1 6
e 1 7
e 1 8
e 1 9
e 1 10
e 1 11
e 1 12
e 1 13
e 1 14
e 1 15
e 1 16
e 1 17
e 1 18
e 1 19
e 1 20
e 1 21
e 1 22
e 1 23
e 1 24
e 1 25
e 1 26
e 1 27
e 1 28
e 1 29
e 1 30
e 1 31
e 1 32
e 1 33
e 1 34
e 1 35
e 1 36
e 1 37
e 1 38
e 1 39
e 1 40
e 1 41
e 1 42
e 1 43
e 1 44
e 1 45
e 1 46
e 1 47
e 1 48
e 1 49
e 1 50
e 1 51
e 1 52
e 1 53
e 1 54
e 1 55
e 56 57
e 56 58
e 56 59
e 56 60
e 56 61
e 56 62
e 56 63
e 56 64
e 56 65
e 56 66
e 56 67
e 56 68
e 56 69
e 56 70
e 56 71
e 56 72
e 56 73
e 56 74
e 56 75
e 56 76
e 56 77
e 56 78
e 56 79
e 80 81
e 80 82
e 80 83
e 80 84
e 80 85
e 80 86
e 80 87
e 80 88
e 80 89
e 80 90
e 80 91
e 80 92
e 80 93
e 80 94
e 80 95
e 80 96
e 80 97
e 80 98
e 80 99
e 100 101
e 100 102
e 100 103
e 100 104
e 100 105
e 100 106
e 100 107
e 100 108
e 100 109
e 100 110
e 100 111
e 100 112
e 100 113
e 100 114
e 100 115
e 100 116
e 100 117
e 100 118
e 100 119
e 100 120
e 100 121
e 100 122
e 100 123
e 100 124
e 100 125
e 100 126
e 100 127
e 100 128
e 100 129
e 100 130
e 100 131
e 100 132
e 100 133
e 100 134
e 100 135
e 100 136
e 100 137
e 100 138
e 100 139
e 100 140
e 100 141
e 100 142
e 100 143
e 100 144
e 100 145
e 100 146
e 100 147
e 100 148
e 100 149
e 100 150
e 100 151
e 100 152
e 153 154
e 153 155
e 153 156
e 153 157
e 153 158
e 153 159
e 153 160
e 153 161
e 153 162
e 153 163
e 153 164
e 153 165
e 153 166
e 153 167
e 153 168
e 153 169
e 153 170
e 153 171
e 153 172
e 153 173
e 153 174
e 153 175
e 153 176
e 153 177
e 153 178
e 153 179
e 153 180
e 153 181
e 153 182
e 153 183
e 153 184
e 153 185
e 153 186
e 153 187
e 153 188
e 153 189
e 153 190
e 153 191
e 153 192
e 153 193
e 153 194
e 153 195
e 153 196
e 153 197
e 153 198
e 153 199
e 153 200
e 153 201
e 153 202
e 153 203
e 153 204
e 153 205
e 153 206
e 153 207
e 153 208
e 153 209
e 210 211
e 210 212
e 210 213
e 210 214
e 210 215
e 210 216
e 210 217
e 210 218
e 210 219
e 210 220
e 210 221
e 210 222
e 210 223
e 210 224
e 210 225
e 226 227
e 226 228
e 226 229
e 226 230
e 226 231
e 226 232
e 226 233
e 226 234
e 226 235
e 226 236
e 226 237
e 226 238
e 226 239
e 226 240
e 226 241
e 226 242
e 226 243
e 226 244
e 226 245
e 226 246
e 226 247
e 226 248
e 226 249
e 226 250
e 226 251
e 226 252
e 226 253
e 226 254
e 226 255
e 226 256
e 226 257
e 226 258
e 226 259
e 226 260
e 226 261
e 226 262
e 226 263
e 226 264
e 226 265
e 226 266
e 226 267
e 226 268
e 226 269
e 226 270
e 226 271
e 226 272
e 226 273
e 226 274
e 226 275
e 226 276
e 226 277
e 226 278
e 226 279
e 226 280
e 226 281
e 226 282
e 226 283
e 226 284
e 226 285
e 226 286
e 226 287
e 226 288
e 226 289
e 226 290
e 226 291
e 226 292
e 226 293
e 226 294
e 226 295
e 226 296
e 226 297
e 226 298
e 226 299
e 226 300
e 226 301
e 226 302
e 226 303
e 226 304
e 226 305
e 226 306
e 226 307
e 226 308
e 226 309
e 226 310
e 226 311
e 226 312
e 226 313
e 226 314
e 226 315
e 316 317
e 316 318
e 316 319
e 316 320
e 316 321
e 316 322
e 316 323
e 316 324
e 316 325
e 316 326
e 316 327
e 316 328
e 316 329
e 316 330
e 316 331
e 316 332
e 316 333
e 316 334
e 316 335
e 316 336
e 316 337
e 316 338
e 316 339
e 316 340
e 316 341
e 342 343
e 342 344
e 342 345
e 342 346
e 342 347
e 342 348
e 342 349
e 342 350
e 342 351
e 342 352
e 342 353
e 342 354
e 342 355
e 342 356
e 342 357
e 342 358
e 342 359
e 342 360
e 342 361
e 342 362
e 342 363
e 342 364
e 342 365
e 342 366
e 342 367
e 342 368
e 342 369
e 342 370
e 342 371
e 342 372
e 342 373
e 342 374
e 342 375
e 342 376
e 342 377
e 342 378
e 342 379
e 342 380
e 342 381
e 342 382
e 342 383
e 342 384
e 342 385
e 342 386
e 342 387
e 342 388
e 342 389
e 342 390
e 342 391
e 342 392
e 342 393
e 342 394
e 342 395
e 342 396
e 342 397
e 342 398
e 342 399
e 342 400
e 342 401
e 342 402
e 342 403
e 342 404
e 342 405
e 406 407
e 406 408
e 406 409
e 406 410
e 406 411
e 406 412
e 406 413
e 406 414
e 406 415
e 406 416
e 406 417
e 406 418
e 406 419
e 406 420
e 406 421
e 406 422
e 406 423
e 406 424
e 406 425
e 406 426
e 406 427
e 406 428
e 406 429
e 406 430
e 406 431
e 406 432
e 406 433
e 406 434
e 406 435
e 406 436
e 406 437
e 406 438
e 406 439
e 406 440
e 406 441
e 406 442
e 406 443
e 406 444
e 406 445
e 406 446
e 406 447
e 406 448
e 406 449
e 406 450
e 406 451
e 406 452
e 406 453
e 406 454
e 406 455
e 406 456
e 406 457
e 406 458
e 406 459
e 406 460
e 406 461
e 406 462
e 406 463
e 406 464
e 406 465
e 406 466
e 406 467
e 406 468
e 406 469
e 406 470
e 406 471
e 406 472
e 406 473
e 406 474
e 406 475
e 406 476
e 406 477
e 406 478
e 406 479
e 406 480
e 406 481
e 406 482
e 406 483
e 406 484
e 406 485
e 406 486
e 406 487
e 406 488
e 406 489
e 406 490
e 406 491
e 406 492
e 406 493
e 406 494
e 406 495
e 406 496
e 406 497
e 406 498
e 406 499
e 406 500
e 406 501
e 406 502
e 406 503
e 406 504
e 406 505
e 506 507
e 506 508
e 506 509
e 506 510
e 506 511
e 506 512
e 506 513
e 506 514
e 506 515
e 506 516
e 506 517
e 506 518
e 506 519
e 506 520
e 506 521
e 506 522
e 506 523
e 506 524
e 506 525
e 506 526
e 506 527
e 506 528
e 506 529
e 506 530
e 506 531
e 506 532
e 506 533
e 506 534
e 506 535
e 506 536
e 506 537
e 506 538
e 506 539
e 506 540
e 506 541
e 506 542
e 506 543
e 506 544
e 506 545
e 506 546
e 506 547
e 506 548
e 506 549
e 506 550
e 506 551
e 506 552
e 506 553
e 506 554
e 506 555
e 506 556
e 506 557
e 506 558
e 506 559
e 506 560
e 506 561
e 506 562
e 506 563
e 506 564
e 506 565
e 506 566
e 506 567
e 506 568
e 506 569
e 506 570
e 506 571
e 506 572
e 506 573
e 506 574
e 506 575
e 506 576
e 506 577
e 506 578
e 506 579
e 506 580
e 506 581
e 506 582
e 583 584
e 583 585
e 583 586
e 583 587
e 583 588
e 583 589
e 583 590
e 583 591
e 583 592
e 583 593
e 583 594
e 583 595
e 583 596
e 583 597
e 583 598
e 583 599
e 583 600
e 583 601
e 583 602
e 583 603
e 583 604
e 583 605
e 583 606
e 583 607
e 583 608
e 583 609
e 583 610
e 583 611
e 583 612
e 583 613
e 583 614
e 583 615
e 583 616
e 583 617
e 583 618
e 583 619
e 583 620
e 583 621
e 583 622
e 583 623
e 583 624
e 583 625
e 583 626
e 583 627
e 628 629
e 628 630
e 628 631
e 628 632
e 628 633
e 628 634
e 628 635
e 628 636
e 628 637
e 628 638
e 628 639
e 628 640
e 628 641
e 628 642
e 628 643
e 628 644
e 628 645
e 628 646
e 628 647
e 628 648
e 628 649
e 628 650
e 628 651
e 628 652
e 628 653
e 628 654
e 628 655
e 628 656
e 628 657
e 628 658
e 628 659
e 628 660
e 628 661
e 628 662
e 628 663
e 628 664
e 628 665
e 628 666
e 628 667
e 628 668
e 628 669
e 628 670
e 628 671
e 628 672
e 628 673
e 628 674
e 628 675
e 628 676
e 628 677
e 628 678
e 628 679
e 628 680
e 681 682
e 681 683
e 681 684
e 681 685
e 681 686
e 681 687
e 681 688
e 681 689
e 681 690
e 681 691
e 681 692
e 681 693
e 681 694
e 681 695
e 681 696
e 681 697
e 681 698
e 681 699
e 681 700
e 681 701
e 681 702
e 681 703
e 681 704
e 681 705
e 681 706
e 681 707
e 681 708
e 709 710
e 709 711
e 709 712
e 709 713
e 709 714
e 709 715
e 709 716
e 709 717
e 709 718
e 709 719
e 709 720
e 709 721
e 709 722
e 709 723
e 709 724
e 709 725
e 709 726
e 709 727
e 709 728
e 709 729
e 730 731
e 730 732
e 730 733
e 730 734
e 730 735
e 730 736
e 730 737
e 730 738
e 730 739
e 730 740
e 730 741
e 730 742
e 730 743
e 730 744
e 730 745
e 730 746
e 730 747
e 730 748
e 730 749
e 730 750
e 730 751
e 730 752
e 730 753
e 730 754
e 730 755
e 730 756
e 730 757
e 730 758
e 730 759
e 730 760
e 730 761
e 762 763
e 762 764
e 762 765
e 762 766
e 762 767
e 762 768
e 762 769
e 762 770
e 762 771
e 762 772
e 762 773
e 762 774
e 762 775
e 762 776
e 762 777
e 762 778
e 762 779
e 762 780
e 762 781
e 762 782
e 762 783
e 762 784
e 762 785
e 762 786
e 762 787
e 762 788
e 762 789
e 762 790
e 762 791
e 762 792
e 793 794
e 793 795
e 793 796
e 793 797
e 793 798
e 793 799
e 793 800
e 793 801
e 793 802
e 793 803
e 793 804
e 793 805
e 793 806
e 793 807
e 793 808
e 793 809
e 793 810
e 793 811
e 793 812
e 793 813
e 793 814
e 793 815
e 793 816
e 793 817
e 793 818
e 793 819
e 793 820
e 793 821
e 793 822
e 793 823
e 793 824
e 793 825
e 793 826
e 793 827
e 793 828
e 793 829
e 793 830
e 793 831
e 832 833
e 832 834
e 832 835
e 832 836
e 832 837
e 832 838
e 832 839
e 832 840
e 832 841
e 832 842
e 832 843
e 832 844
e 832 845
e 832 846
e 832 847
e 832 848
e 832 849
e 832 850
e 832 851
e 832 852
e 832 853
e 832 854
e 832 855
e 832 856
e 832 857
e 832 858
e 832 859
e 832 860
e 832 861
e 832 862
e 832 863
e 832 864
e 832 865
e 832 866
e 832 867
e 832 868
e 832 869
e 832 870
e 832 871
e 832 872
e 832 873
e 832 874
e 832 875
e 832 876
e 832 877
e 832 878
e 832 879
e 832 880
e 832 881
e 832 882
e 832 883
e 832 884
e 832 885
e 832 886
e 832 887
e 832 888
e 832 889
e 832 890
e 832 891
e 832 892
e 832 893
e 832 894
e 832 895
e 832 896
e 832 897
e 832 898
e 832 899
e 832 900
e 832 901
e 832 902
e 832 903
e 904 905
e 904 906
e 904 907
e 904 908
e 904 909
e 904 910
e 904 911
e 904 912
e 904 913
e 904 914
e 904 915
e 904 916
e 904 917
e 904 918
e 904 919
e 904 920
e 904 921
e 904 922
e 904 923
e 904 924
e 904 925
e 904 926
e 904 927
e 904 928
e 904 929
e 904 930
e 904 931
e 904 932
e 904 933
e 904 934
e 904 935
e 904 936
e 904 937
e 904 938
e 904 939
e 904 940
e 904 941
e 904 942
e 904 943
e 904 944
e 904 945
e 904 946
e 904 947
e 904 948
e 904 949
e 904 950
e 904 951
e 904 952
e 904 953
e 904 954
e 904 955
e 904 956
e 904 957
e 904 958
e 904 959
e 904 960
e 961 962
e 961 963
e 961 964
e 961 965
e 961 966
e 961 967
e 961 968
e 961 969
e 961 970
e 961 971
e 961 972
e 961 973
e 961 974
e 961 975
e 961 976
e 961 977
e 978 979
e 978 980
e 978 981
e 978 982
e 978 983
e 978 984
e 978 985
e 978 986
e 978 987
e 978 988
e 978 989
e 978 990
e 978 991
e 978 992
e 978 993
e 978 994
e 978 995
e 978 996
e 978 997
e 978 998
e 978 999
e 978 1000
e 978 1001
e 978 1002
e 978 1003
e 978 1004
e 978 1005
e 978 1006
e 978 1007
e 978 1008
e 978 1009
e 978 1010
e 978 1011
e 978 1012
e 978 1013
e 978 1014
e 978 1015
e 978 1016
e 978 1017
e 978 1018
e 978 1019
e 978 1020
e 1021 1022
e 1021 1023
e 1021 1024
e 1021 1025
e 1021 1026
e 1021 1027
e 1021 1028
e 1021 1029
e 1021 1030
e 1021 1031
e 1021 1032
e 1021 1033
e 1021 1034
e 1021 1035
e 1021 1036
e 1021 1037
e 1021 1038
e 1021 1039
e 1021 1040
e 1021 1041
e 1021 1042
e 1021 1043
e 1021 1044
e 1021 1045
e 1021 1046
e 1021 1047
e 1021 1048
e 1021 1049
e 1021 1050
e 1021 1051
e 1021 1052
e 1021 1053
e 1021 1054
e 1021 1055
e 1056 1057
e 1056 1058
e 1056 1059
e 1056 1060
e 1056 1061
e 1056 1062
e 1056 1063
e 1056 1064
e 1056 1065
e 1056 1066
e 1056 1067
e 1056 1068
e 1056 1069
e 1056 1070
e 1056 1071
e 1056 1072
e 1056 1073
e 1056 1074
e 1056 1075
e 1056 1076
e 1056 1077
e 1056 1078
e 1056 1079
e 1056 1080
e 1056 1081
e 1056 1082
e 1056 1083
e 1056 1084
e 1056 1085
e 1056 1086
e 1056 1087
e 1056 1088
e 1056 1089
e 1056 1090
e 1056 1091
e 1056 1092
e 1056 1093
e 1056 1094
e 1056 1095
e 1056 1096
e 1056 1097
e 1056 1098
e 1056 1099
e 1056 1100
e 1056 1101
e 1056 1102
e 1056 1103
e 1056 1104
e 1056 1105
e 1106 1107
e 1106 1108
e 1106 1109
e 1106 1110
e 1106 1111
e 1106 1112
e 1106 1113
e 1106 1114
e 1106 1115
e 1106 1116
e 1106 1117
e 1106 1118
e 1106 1119
e 1106 1120
e 1106 1121
e 1106 1122
e 1106 1123
e 1106 1124
e 1106 1125
e 1106 1126
e 1106 1127
e 1106 1128
e 1106 1129
e 1106 1130
e 1106 1131
e 1106 1132
e 1106 1133
e 1106 1134
e 1106 1135
e 1106 1136
e 1106 1137
e 1106 1138
e 1106 1139
e 1106 1140
e 1106 1141
e 1106 1142
e 1106 1143
e 1106 1144
e 1106 1145
e 1146 1147
e 1146 1148
e 1146 1149
e 1146 1150
e 1146 1151
e 1146 1152
e 1146 1153
e 1146 1154
e 1146 1155
e 1146 1156
e 1146 1157
e 1146 1158
e 1146 1159
e 1146 1160
e 1146 1161
e 1146 1162
e 1146 1163
e 1146 1164
e 1146 1165
e 1146 1166
e 1146 1167
e 1146 1168
e 1146 1169
e 1146 1170
e 1146 1171
e 1146 1172
e 1146 1173
e 1146 1174
e 1146 1175
e 1146 1176
e 1146 1177
e 1146 1178
e 1146 1179
e 1146 1180
e 1146 1181
e 1146 1182
e 1146 1183
e 1146 1184
e 1146 1185
e 1146 1186
e 1187 1188
e 1187 1189
e 1187 1190
e 1187 1191
e 1187 1192
e 1187 1193
e 1187 1194
e 1187 1195
e 1187 1196
e 1187 1197
e 1187 1198
e 1187 1199
e 1187 1200
e 1187 1201
e 1187 1202
e 1187 1203
e 1187 1204
e 1187 1205
e 1187 1206
e 1187 1207
e 1187 1208
e 1187 1209
e 1187 1210
e 1187 1211
e 1187 1212
e 1187 1213
e 1187 1214
e 1187 1215
e 1187 1216
e 1187 1217
e 1187 1218
e 1187 1219
e 1187 1220
e 1187 1221
e 1187 1222
e 1187 1223
e 1187 1224
e 1187 1225
e 1187 1226
e 1187 1227
e 1187 1228
e 1187 1229
e 1187 1230
e 1187 1231
e 1187 1232
e 1187 1233
e 1187 1234
e 1187 1235
e 1187 1236
e 1187 1237
e 1187 1238
e 1187 1239
e 1187 1240
e 1187 1241
e 1187 1242
e 1187 1243
e 1187 1244
e 1187 1245
e 1187 1246
e 1187 1247
e 1187 1248
e 1187 1249
e 1187 1250
e 1187 1251
e 1187 1252
e 1187 1253
e 1187 1254
e 1187 1255
e 1187 1256
e 1187 1257
e 1187 1258
e 1187 1259
e 1187 1260
e 1187 1261
e 1187 1262
e 1187 1263
e 1187 1264
e 1187 1265
e 1187 1266
e 1187 1267
e 1268 1269
e 1268 1270
e 1268 1271
e 1268 1272
e 1268 1273
e 1268 1274
e 1268 1275
e 1268 1276
e 1268 1277
e 1268 1278
e 1268 1279
e 1268 1280
e 1268 1281
e 1268 1282
e 1268 1283
e 1268 1284
e 1268 1285
e 1268 1286
e 1268 1287
e 1268 1288
e 1268 1289
e 1268 1290
e 1268 1291
e 1268 1292
e 1268 1293
e 1268 1294
e 1268 1295
e 1268 1296
e 1268 1297
e 1268 1298
e 1268 1299
e 1268 1300
e 1268 1301
e 1268 1302
e 1268 1303
e 1268 1304
e 1268 1305
e 1268 1306
e 1268 1307
e 1268 1308
e 1268 1309
e 1268 1310
e 1268 1311
e 1268 1312
e 1268 1313
e 1268 1314
e 1268 1315
e 1268 1316
e 1268 1317
e 1268 1318
e 1268 1319
e 1268 1320
e 1268 1321
e 1268 1322
e 1268 1323
e 1268 1324
e 1268 1325
e 1268 1326
e 1268 1327
e 1268 1328
e 1268 1329
e 1268 1330
e 1268 1331
e 1268 1332
e 1268 1333
e 1268 1334
e 1268 1335
e 1268 1336
e 1268 1337
e 1268 1338
e 1268 1339
e 1268 1340
e 1268 1341
e 1268 1342
e 1268 1343
e 1268 1344
e 1268 1345
e 1268 1346
e 1268 1347
e 1268 1348
e 1268 1349
e 1268 1350
e 1268 1351
e 1268 1352
e 1268 1353
e 1268 1354
e 1268 1355
e 1268 1356
e 1268 1357
e 1268 1358
e 1268 1359
e 1268 1360
e 1268 1361
e 1362 1363
e 1362 1364
e 1362 1365
e 1362 1366
e 1362 1367
e 1362 1368
e 1362 1369
e 1362 1370
e 1362 1371
e 1362 1372
e 1362 1373
e 1362 1374
e 1362 1375
e 1362 1376
e 1362 1377
e 1362 1378
e 1362 1379
e 1362 1380
e 1362 1381
e 1362 1382
e 1383 1384
e 1383 1385
e 1383 1386
e 1383 1387
e 1383 1388
e 1383 1389
e 1383 1390
e 1383 1391
e 1383 1392
e 1383 1393
e 1383 1394
e 1383 1395
e 1383 1396
e 1383 1397
e 1383 1398
e 1383 1399
e 1383 1400
e 1383 1401
e 1383 1402
e 1383 1403
e 1383 1404
e 1383 1405
e 1383 1406
e 1383 1407
e 1383 1408
e 1383 1409
e 1383 1410
e 1383 1411
e 1383 1412
e 1383 1413
e 1383 1414
e 1383 1415
e 1383 1416
e 1383 1417
e 1383 1418
e 1383 1419
e 1383 1420
e 1383 1421
e 1383 1422
e 1383 1423
e 1383 1424
e 1383 1425
e 1383 1426
e 1383 1427
e 1383 1428
e 1383 1429
e 1383 1430
e 1383 1431
e 1383 1432
e 1383 1433
e 1383 1434
e 1383 1435
e 1383 1436
e 1383 1437
e 1383 1438
e 1383 1439
e 1383 1440
e 1383 1441
e 1383 1442
e 1383 1443
e 1383 1444
e 1383 1445
e 1383 1446
e 1383 1447
e 1383 1448
e 1383 1449
e 1383 1450
e 1383 1451
e 1383 1452
e 1383 1453
e 1383 1454
e 1383 1455
e 1383 1456
e 1383 1457
e 1383 1458
e 1383 1459
e 1383 1460
e 1383 1461
e 1383 1462
e 1383 1463
e 1383 1464
e 1383 1465
e 1383 1466
e 1383 1467
e 1383 1468
e 1383 1469
e 1383 1470
e 1383 1471
e 1383 1472
e 1383 1473
e 1474 1475
e 1474 1476
e 1474 1477
e 1474 1478
e 1474 1479
e 1474 1480
e 1474 1481
e 1474 1482
e 1474 1483
e 1474 1484
e 1474 1485
e 1474 1486
e 1474 1487
e 1474 1488
e 1474 1489
e 1474 1490
e 1474 1491
e 1474 1492
e 1474 1493
e 1474 1494
e 1474 1495
e 1474 1496
e 1474 1497
e 1474 1498
e 1474 1499
e 1474 1500
e 1474 1501
e 1474 1502
e 1474 1503
e 1474 1504
e 1474 1505
e 1474 1506
e 1474 1507
e 1474 1508
e 1474 1509
e 1474 1510
e 1474 1511
e 1474 1512
e 1474 1513
e 1474 1514
e 1474 1515
e 1474 1516
e 1474 1517
e 1474 1518
e 1474 1519
e 1474 1520
e 1474 1521
e 1474 1522
e 1474 1523
e 1474 1524
e 1474 1525
e 1474 1526
e 1474 1527
e 1474 1528
e 1474 1529
e 1474 1530
e 1474 1531
e 1474 1532
e 1533 1534
e 1533 1535
e 1533 1536
e 1533 1537
e 1533 1538
e 1533 1539
e 1533 1540
e 1533 1541
e 1533 1542
e 1533 1543
e 1533 1544
e 1533 1545
e 1533 1546
e 1533 1547
e 1533 1548
e 1533 1549
e 1533 1550
e 1533 1551
e 1533 1552
e 1533 1553
e 1533 1554
e 1533 1555
e 1533 1556
e 1533 1557
e 1533 1558
e 1533 1559
e 1533 1560
e 1533 1561
e 1533 1562
e 1533 1563
e 1533 1564
e 1533 1565
e 1533 1566
e 1533 1567
e 1533 1568
e 1533 1569
e 1533 1570
e 1533 1571
e 1533 1572
e 1533 1573
e 1533 1574
e 1533 1575
e 1533 1576
e 1533 1577
e 1533 1578
e 1533 1579
e 1533 1580
e 1533 1581
e 1533 1582
e 1533 1583
e 1533 1584
e 1533 1585
e 1533 1586
e 1533 1587
e 1533 1588
e 1533 1589
e 1533 1590
e 1533 1591
e 1533 1592
e 1533 1593
e 1533 1594
e 1533 1595
e 1533 1596
e 1533 1597
e 1533 1598
e 1533 1599
e 1533 1600
e 1533 1601
e 1533 1602
e 1533 1603
e 1533 1604
e 1533 1605
e 1606 1607
e 1606 1608
e 1606 1609
e 1606 1610
e 1606 1611
e 1606 1612
e 1606 1613
e 1606 1614
e 1606 1615
e 1606 1616
e 1606 1617
e 1606 1618
e 1606 1619
e 1606 1620
e 1606 1621
e 1606 1622
e 1606 1623
e 1606 1624
e 1625 1626
e 1625 1627
e 1625 1628
e 1625 1629
e 1625 1630
e 1625 1631
e 1625 1632
e 1625 1633
e 1625 1634
e 1625 1635
e 1625 1636
e 1625 1637
e 1625 1638
e 1625 1639
e 1625 1640
e 1625 1641
e 1625 1642
e 1625 1643
e 1625 1644
e 1625 1645
e 1625 1646
e 1625 1647
e 1625 1648
e 1625 1649
e 1625 1650
e 1625 1651
e 1625 1652
e 1625 1653
e 1625 1654
e 1625 1655
e 1625 1656
e 1625 1657
e 1625 1658
e 1625 1659
e 1660 1661
e 1660 1662
e 1660 1663
e 1660 1664
e 1660 1665
e 1660 1666
e 1660 1667
e 1660 1668
e 1660 1669
e 1660 1670
e 1660 1671
e 1660 1672
e 1660 1673
e 1660 1674
e 1660 1675
e 1660 1676
e 1660 1677
e 1660 1678
e 1660 1679
e 1660 1680
e 1660 1681
e 1660 1682
e 1660 1683
e 1660 1684
e 1660 1685
e 1660 1686
e 1660 1687
e 1660 1688
e 1660 1689
e 1660 1690
e 1660 1691
e 1660 1692
e 1660 1693
e 1660 1694
e 1660 1695
e 1660 1696
e 1660 1697
e 1660 1698
e 1660 1699
e 1660 1700
e 1660 1701
e 1660 1702
e 1660 1703
e 1660 1704
e 1660 1705
e 1660 1706
e 1660 1707
e 1660 1708
e 1660 1709
e 1660 1710
e 1660 1711
e 1660 1712
e 1660 1713
e 1660 1714
e 1660 1715
e 1660 1716
e 1660 1717
e 1660 1718
e 1660 1719
e 1660 1720
e 1660 1721
e 1660 1722
e 1660 1723
e 1660 1724
e 1660 1725
e 1660 1726
e 1660 1727
e 1660 1728
e 1660 1729
e 1660 1730
e 1660 1731
e 1660 1732
e 1660 1733
e 1660 1734
e 1660 1735
e 1660 1736
e 1660 1737
e 1660 1738
e 1660 1739
e 1660 1740
e 1660 1741
e 1660 1742
e 1660 1743
e 1660 1744
e 1660 1745
e 1660 1746
e 1660 1747
e 1660 1748
e 1660 1749
e 1660 1750
e 1660 1751
e 1660 1752
e 1753 1754
e 1753 1755
e 1753 1756
e 1753 1757
e 1753 1758
e 1753 1759
e 1753 1760
e 1753 1761
e 1753 1762
e 1753 1763
e 1753 1764
e 1753 1765
e 1753 1766
e 1753 1767
e 1753 1768
e 1753 1769
e 1753 1770
e 1753 1771
e 1753 1772
e 1753 1773
e 1753 1774
e 1753 1775
e 1753 1776
e 1753 1777
e 1753 1778
e 1753 1779
e 1753 1780
e 1753 1781
e 1753 1782
e 1753 1783
e 1753 1784
e 1753 1785
e 1753 1786
e 1753 1787
e 1753 1788
e 1753 1789
e 1753 1790
e 1753 1791
e 1753 1792
e 1753 1793
e 1753 1794
e 1753 1795
e 1753 1796
e 1753 1797
e 1753 1798
e 1753 1799
e 1753 1800
e 1753 1801
e 1753 1802
e 1753 1803
e 1753 1804
e 1753 1805
e 1753 1806
e 1753 1807
e 1753 1808
e 1753 1809
e 1753 1810
e 1753 1811
e 1753 1812
e 1753 1813
e 1753 1814
e 1753 1815
e 1753 1816
e 1753 1817
e 1753 1818
e 1753 1819
e 1753 1820
e 1753 1821
e 1753 1822
e 1753 1823
e 1753 1824
e 1753 1825
e 1753 1826
e 1753 1827
e 1753 1828
e 1753 1829
e 1753 1830
e 1753 1831
e 1753 1832
e 1753 1833
e 1753 1834
e 1753 1835
e 1753 1836
e 1753 1837
e 1753 1838
e 1753 1839
e 1753 1840
e 1753 1841
e 1753 1842
e 1753 1843
e 1753 1844
e 1753 1845
e 1753 1846
e 1753 1847
e 1753 1848
e 1753 1849
e 1753 1850
e 1753 1851
e 1753 1852
e 1753 1853
e 1854 1855
e 1854 1856
e 1854 1857
e 1854 1858
e 1854 1859
e 1854 1860
e 1854 1861
e 1854 1862
e 1854 1863
e 1854 1864
e 1854 1865
e 1854 1866
e 1854 1867
e 1854 1868
e 1854 1869
e 1854 1870
e 1854 1871
e 1854 1872
e 1854 1873
e 1854 1874
e 1854 1875
e 1854 1876
e 1854 1877
e 1854 1878
e 1854 1879
e 1854 1880
e 1854 1881
e 1854 1882
e 1854 1883
e 1854 1884
e 1854 1885
e 1854 1886
e 1854 1887
e 1854 1888
e 1854 1889
e 1854 1890
e 1854 1891
e 1854 1892
e 1854 1893
e 1854 1894
e 1854 1895
e 1854 1896
e 1854 1897
e 1854 1898
e 1854 1899
e 1854 1900
e 1854 1901
e 1854 1902
e 1854 1903
e 1854 1904
e 1854 1905
e 1854 1906
e 1854 1907
e 1854 1908
e 1854 1909
e 1854 1910
e 1911 1912
e 1911 1913
e 1911 1914
e 1911 1915
e 1911 1916
e 1911 1917
e 1911 1918
e 1911 1919
e 1911 1920
e 1911 1921
e 1911 1922
e 1911 1923
e 1911 1924
e 1911 1925
e 1911 1926
e 1911 1927
e 1911 1928
e 1911 1929
e 1911 1930
e 1911 1931
e 1911 1932
e 1911 1933
e 1911 1934
e 1911 1935
e 1911 1936
e 1911 1937
e 1911 1938
e 1911 1939
e 1911 1940
e 1911 1941
e 1911 1942
e 1911 1943
e 1911 1944
e 1911 1945
e 1911 1946
e 1911 1947
e 1911 1948
e 1911 1949
e 1911 1950
e 1911 1951
e 1911 1952
e 1911 1953
e 1911 1954
e 1911 1955
e 1911 1956
e 1911 1957
e 1911 1958
e 1911 1959
e 1911 1960
e 1911 1961
e 1911 1962
e 1911 1963
e 1911 1964
e 1911 1965
e 1911 1966
e 1911 1967
e 1911 1968
e 1911 1969
e 1911 1970
e 1911 1971
e 1911 1972
e 1911 1973
e 1911 1974
e 1911 1975
e 1911 1976
e 1911 1977
e 1911 1978
e 1911 1979
e 1911 1980
e 1911 1981
e 1911 1982
e 1983 1984
e 1983 1985
e 1983 1986
e 1983 1987
e 1983 1988
e 1983 1989
e 1983 1990
e 1983 1991
e 1983 1992
e 1983 1993
e 1983 1994
e 1983 1995
e 1983 1996
e 1983 1997
e 1983 1998
e 1983 1999
e 1983 2000
e 1983 2001
e 1983 2002
e 1983 2003
e 1983 2004
e 1983 2005
e 1983 2006
e 1983 2007
e 1983 2008
e 1983 2009
e 1983 2010
e 1983 2011
e 1983 2012
e 1983 2013
e 1983 2014
e 1983 2015
e 1983 2016
e 1983 2017
e 1983 2018
e 1983 2019
e 1983 2020
e 1983 2021
e 1983 2022
e 1983 2023
e 1983 2024
e 1983 2025
e 1983 2026
e 1983 2027
e 1983 2028
e 1983 2029
e 1983 2030
e 1983 2031
e 1983 2032
e 1983 2033
e 1983 2034
e 1983 2035
e 1983 2036
e 1983 2037
e 1983 2038
e 1983 2039
e 1983 2040
e 1983 2041
e 1983 2042
e 1983 2043
e 1983 2044
e 1983 2045
e 1983 2046
e 1983 2047
e 1983 2048
e 1983 2049
e 1983 2050
e 1983 2051
e 1983 2052
e 1983 2053
e 1983 2054
e 1983 2055
e 1983 2056
e 1983 2057
e 1983 2058
e 1983 2059
e 1983 2060
e 1983 2061
e 1983 2062
e 1983 2063
e 1983 2064
e 1983 2065
e 1983 2066
e 1983 2067
e 1983 2068
e 1983 2069
e 1983 2070
e 1983 2071
e 1983 2072
e 1983 2073
e 1983 2074
e 2075 2076
e 2075 2077
e 2075 2078
e 2075 2079
e 2075 2080
e 2075 2081
e 2075 2082
e 2075 2083
e 2075 2084
e 2075 2085
e 2075 2086
e 2075 2087
e 2075 2088
e 2075 2089
e 2075 2090
e 2075 2091
e 2075 2092
e 2075 2093
e 2075 2094
e 2075 2095
e 2075 2096
e 2075 2097
e 2075 2098
e 2075 2099
e 2075 2100
e 2075 2101
e 2075 2102
e 2075 2103
e 2075 2104
